proyfinal/src/viki/013/experimentInOfficeAgust.take6.output/0e109cc9-6008-4de7-b488-cd1d33864262.als.dat
{'cnf.clauses': '118081',
 'cnf.totvars': '69608',
 'conflict literals': '1767',
 'conflicts': '174',
 'decisions': '4240',
 'memused.mb': '16.83',
 'outcome': 'UNSAT',
 'propagations': '240760',
 'restarts': '2',
 'solver.msecs': 41,
 'task.msecs': 90}
